PROBLEM NAME: small_4_Uncorrelated_n14_m39_c1
KNAPSACK DATA TYPE:
DIMENSION: 14
NUMBER OF ITEMS: 39
CAPACITY OF KNAPSACK: 1857
MIN SPEED: 0.1
MAX SPEED: 1.0
RENTING RATIO: 1.0
EDGE_WEIGHT_TYPE: CEIL_2D
NODE_COORD_SECTION	(INDEX, X, Y): 
1	14	37
2	890	954
3	561	401
4	92	290
5	103	15
6	936	596
7	102	334
8	481	749
9	475	999
10	748	535
11	639	87
12	463	63
13	9	667
14	284	755
ITEMS SECTION	(INDEX, PROFIT, WEIGHT, ASSIGNED NODE NUMBER): 
1	317	967	2
2	476	275	2
3	661	785	2
4	339	579	3
5	704	604	3
6	535	112	3
7	414	23	4
8	985	547	4
9	935	426	4
10	984	586	5
11	141	911	5
12	908	506	5
13	606	833	6
14	809	930	6
15	888	695	6
16	267	69	7
17	124	655	7
18	298	974	7
19	379	493	8
20	587	692	8
21	917	341	8
22	82	446	9
23	923	16	9
24	357	360	9
25	184	124	10
26	173	295	10
27	893	105	10
28	375	992	11
29	409	476	11
30	249	693	11
31	60	432	12
32	775	68	12
33	494	510	12
34	556	928	13
35	408	642	13
36	303	344	13
37	290	846	14
38	493	630	14
39	250	527	14
